p icnf
i -3 0
i 17 0
i -35 0
i -35 0
i 11 0
i -7 0
i 10 0
i 5 0
i -9 0
i -29 0
i 26 0
i -24 0
i 6 0
i -9 0
i 5 0
i -8 0
i -1 0
i -14 0
i -35 0
i 23 0
i 34 0
i 20 0
i -29 0
i 12 0
i -22 0
i 21 0
i 33 0
i -8 0
i -32 0
i 31 0
i -32 0
i 11 0
i 30 0
i 34 0
i 16 0
i 10 0
i 27 0
i 10 0
i 6 0
i 6 0
i -25 0
i 12 0
i -32 0
i 28 0
i 18 0
i 23 0
i 12 0
i -15 0
i -24 0
i -32 0
i -4 0
i 5 0
i 28 0
i 11 0
i 28 0
i -32 0
i -8 0
i -9 0
i 18 0
i 27 0
i -8 0
i 11 0
i 6 0
i -9 0
i 21 0
i 17 0
i -19 0
i 27 0
i -25 0
i 2 0
i 33 0
i 28 0
i 30 0
i -9 0
i -9 0
i 26 0
i -7 0
i -4 0
i -1 0
i -15 0
i 13 0
i 27 0
i -25 0
i -14 0
i -24 0
i -1 0
i 30 0
i 6 0
i 21 0
i 17 0
i -25 0
i -35 0
i -35 0
i -25 0
i -4 0
i -1 0
i 21 0
i -15 0
i 33 0
i 2 0
i -1 0
i 18 0
i 26 0
i -8 0
i 31 0
q -32 0
s SATISFIABLE
m -1 2 -3 -4 5 6 -7 -8 -9 10 11 12 13 -14 -15 16 17 18 -19 20 21 -22 23 -24 -25 26 27 28 -29 30 31 -32 33 34 -35 0
i 167 0
i 27 0
i -77 0
i -96 0
i -144 0
i -104 0
i -113 0
i 85 0
i 84 0
i -158 0
i -168 0
i 87 0
i 51 0
i -1 0
i 16 0
i 154 0
i -1 0
i 166 0
i -113 0
i -142 0
i 86 0
i 94 0
i 165 0
i 69 0
i 163 0
i -153 0
i -145 0
i -119 0
i 86 0
i -103 0
i 150 0
i -120 0
i 69 0
i 163 0
i -80 0
i -78 0
i 117 0
i -19 0
i -80 0
i -48 0
i -46 0
i 62 0
i 132 0
i -110 0
i -75 0
i 128 0
i 41 0
i -102 0
i -22 0
i -161 0
i -15 0
i -137 0
i -8 0
i 51 0
i 114 0
i 133 0
i -125 0
i -4 0
i 26 0
i 56 0
i -125 0
i 23 0
i 44 0
i -102 0
i -125 0
i -157 0
i -22 0
i -48 0
i 30 0
i 6 0
i 90 0
i 150 0
i 33 0
i 123 0
i -161 0
i 135 0
i -100 0
i -146 0
i -45 0
i 73 0
i 2 0
i 38 0
i 81 0
i 26 0
i -134 0
i 121 0
i 69 0
i 47 0
i 69 0
i -173 0
i -158 0
i -111 0
i 59 0
i 123 0
i -58 0
i 69 0
i -161 0
i -8 0
i -172 0
i 68 0
i -91 0
i -158 0
i 148 0
i -151 0
i 87 0
i 62 0
i 55 0
i 5 0
i -155 0
i 118 0
i -57 0
i 33 0
i 51 0
i -25 0
i 21 0
i 27 0
i -98 0
i 123 0
i 49 0
i 156 0
i -110 0
i -66 0
i 11 0
i 12 0
i 89 0
i 132 0
i -112 0
i -173 0
i 165 0
i 68 0
i -57 0
i -54 0
i 23 0
i -93 0
i -124 0
i 89 0
i -151 0
i -144 0
i -39 0
i 37 0
i -104 0
i -101 0
i 17 0
i -8 0
i 12 0
i 129 0
i -72 0
i 127 0
i -70 0
i -140 0
i -91 0
i 92 0
i -65 0
i -113 0
i 133 0
i 81 0
i 170 0
i -66 0
i 2 0
i -1 0
i -48 0
i 30 0
i -174 0
i 143 0
i 156 0
i -157 0
i 13 0
i -3 0
i -138 0
i 143 0
i 69 0
i -15 0
i 166 0
i 147 0
i 86 0
i 38 0
i 84 0
i -66 0
i -40 0
i -144 0
i 20 0
i 127 0
i -67 0
i -70 0
i -60 0
i 42 0
i 166 0
i 150 0
i -120 0
i 135 0
i 12 0
i 2 0
i 139 0
i -105 0
i -82 0
i -36 0
i 20 0
i -161 0
i 95 0
i 115 0
i 164 0
i -70 0
i 167 0
i -155 0
i 89 0
i -160 0
i -80 0
i -173 0
i 135 0
i -83 0
i -46 0
i 84 0
i 121 0
i 20 0
i 38 0
i -83 0
i -58 0
i -174 0
i 71 0
i 106 0
i 30 0
i 38 0
i 107 0
i 41 0
i 136 0
i 5 0
i 33 0
i 5 0
i -3 0
i -172 0
i -40 0
i -126 0
i -67 0
i -15 0
i -67 0
i 73 0
i -63 0
i -32 0
i -83 0
i 52 0
i 55 0
i 107 0
i 2 0
i -111 0
i -105 0
i 49 0
i -146 0
i -93 0
i 169 0
i 59 0
i 5 0
i 41 0
i 141 0
i 59 0
i -161 0
i 71 0
i -76 0
i 167 0
i -4 0
i -35 0
i -126 0
i 163 0
i -96 0
i 52 0
i -122 0
i -144 0
i 107 0
i 37 0
i 62 0
i 135 0
i 69 0
i 74 0
i 133 0
i 127 0
i 97 0
i 150 0
i -113 0
i 10 0
i 42 0
i 167 0
i -40 0
i -40 0
i 148 0
i 55 0
i 52 0
i -9 0
i 88 0
i 62 0
i -149 0
i -110 0
i 47 0
i 170 0
i -145 0
i -35 0
i 147 0
i -112 0
i -171 0
i 20 0
i 18 0
i 136 0
i -75 0
i 115 0
i 59 0
i -168 0
i 95 0
i 86 0
i 21 0
i -4 0
i 17 0
i 128 0
i -96 0
i -39 0
i -160 0
i 162 0
i 84 0
i 139 0
i -108 0
i -40 0
i -22 0
i -50 0
i -138 0
i 86 0
i -83 0
i -79 0
i -19 0
i 11 0
i 131 0
i -1 0
i -25 0
i 133 0
i -8 0
i 109 0
i -60 0
i 27 0
i 133 0
i -104 0
i 117 0
i -43 0
i 117 0
i 116 0
i -159 0
i 162 0
i -70 0
i 169 0
i -151 0
i 127 0
i -137 0
i 42 0
i 139 0
i 12 0
i -78 0
i -174 0
i -48 0
i 133 0
i 28 0
i 38 0
i -29 0
i -125 0
i 49 0
i -50 0
i 106 0
i 167 0
i 117 0
i -80 0
i 53 0
i -72 0
i -63 0
i 114 0
i -130 0
i 154 0
i -108 0
i 123 0
i 135 0
i 147 0
i 164 0
i 13 0
i -144 0
i 136 0
i 26 0
i -152 0
i 169 0
i 92 0
i 42 0
i -99 0
i -101 0
i 148 0
i 106 0
i 47 0
i 131 0
i 64 0
i -66 0
i 87 0
i -161 0
i -78 0
i 61 0
i -43 0
i 123 0
i -43 0
i 132 0
i 128 0
i 38 0
i -173 0
i -160 0
i 86 0
i 30 0
i 27 0
i -168 0
i 90 0
i -83 0
i -40 0
i 147 0
i -103 0
i -36 0
i 121 0
i 163 0
i -66 0
i 106 0
i 17 0
i 62 0
i -146 0
i -39 0
i 147 0
i -99 0
i 52 0
i -113 0
i -70 0
i 53 0
i 94 0
i -29 0
i 2 0
i 147 0
i -101 0
i 156 0
i 13 0
i -100 0
i -130 0
i -19 0
i -174 0
i -24 0
i -108 0
i 73 0
q -149 0
s SATISFIABLE
m -1 2 -3 -4 5 6 -7 -8 -9 10 11 12 13 -14 -15 16 17 18 -19 20 21 -22 23 -24 -25 26 27 28 -29 30 31 -32 33 34 -35 -36 37 38 -39 -40 41 42 -43 44 -45 -46 47 -48 49 -50 51 52 53 -54 55 56 -57 -58 59 -60 61 62 -63 64 -65 -66 -67 68 69 -70 71 -72 73 74 -75 -76 -77 -78 -79 -80 81 -82 -83 84 85 86 87 88 89 90 -91 92 -93 94 95 -96 97 -98 -99 -100 -101 -102 -103 -104 -105 106 107 -108 109 -110 -111 -112 -113 114 115 116 117 118 -119 -120 121 -122 123 -124 -125 -126 127 128 129 -130 131 132 133 -134 135 136 -137 -138 139 -140 141 -142 143 -144 -145 -146 147 0
